(set-option :produce-models true)
(set-logic QF_UF)
(declare-fun p7() Bool)
(declare-fun p2() Bool)
(declare-fun p1() Bool)
(declare-fun p6() Bool)
(declare-fun p4() Bool)
(declare-fun p0() Bool)
(declare-fun p3() Bool)
(declare-fun p5() Bool)
(assert
(and (or (not p7) (not p2) (not p1)) (or (not p1) (not p1) (not p7)) (or (not p1) (not p2) (not p6)) (or (not p4) (not p0) (not p7)) (or p3 (not p6) (not p4)) (or (not p3) (not p5) p6) (or (not p5) p1 p4) (or p4 p5 (not p3)) (or p5 p2 (not p6)) (or p6 (not p4) (not p4)) (or (not p2) (not p0) (not p5)) (or (not p0) (not p6) (not p6)) (or p3 (not p1) p6) (or p7 (not p0) p7) (or p5 p0 p7) (or (not p0) (not p2) (not p3)) (or (not p1) (not p4) (not p2)) (or (not p5) p4 (not p4)) (or (not p3) (not p4) p3) (or p5 (not p4) (not p1)) (or p5 p2 p6) (or p0 (not p7) p0) (or (not p0) (not p6) (not p4)) (or (not p2) (not p2) p5) (or p7 p2 (not p2)) (or (not p7) p0 p0) (or (not p6) p1 p3) (or (not p4) (not p1) p5) (or (not p6) (not p6) p7) (or (not p5) p7 p1) (or (not p3) p3 (not p0)) (or p1 p7 (not p6)) (or p3 p4 (not p3)) (or (not p2) p7 (not p4)) (or (not p0) p1 (not p1)) (or (not p2) (not p6) (not p5)) (or p3 p7 p4) (or (not p1) p1 p7) (or p0 p1 p3))
)
(check-sat)
(get-model)
